; benchmark generated from python API
(set-info :status unknown)
(declare-fun cell_1_2 () Int)
(declare-fun cell_1_4 () Int)
(declare-fun cell_2_5 () Int)
(declare-fun cell_2_9 () Int)
(declare-fun cell_3_1 () Int)
(declare-fun cell_3_9 () Int)
(declare-fun cell_4_4 () Int)
(declare-fun cell_4_8 () Int)
(declare-fun cell_5_3 () Int)
(declare-fun cell_5_7 () Int)
(declare-fun cell_6_3 () Int)
(declare-fun cell_6_6 () Int)
(declare-fun cell_7_2 () Int)
(declare-fun cell_8_7 () Int)
(declare-fun cell_9_5 () Int)
(declare-fun cell_1_1 () Int)
(declare-fun cell_2_1 () Int)
(declare-fun cell_4_1 () Int)
(declare-fun cell_5_1 () Int)
(declare-fun cell_6_1 () Int)
(declare-fun cell_7_1 () Int)
(declare-fun cell_8_1 () Int)
(declare-fun cell_9_1 () Int)
(declare-fun cell_2_2 () Int)
(declare-fun cell_3_2 () Int)
(declare-fun cell_4_2 () Int)
(declare-fun cell_5_2 () Int)
(declare-fun cell_6_2 () Int)
(declare-fun cell_8_2 () Int)
(declare-fun cell_9_2 () Int)
(declare-fun cell_1_3 () Int)
(declare-fun cell_2_3 () Int)
(declare-fun cell_3_3 () Int)
(declare-fun cell_4_3 () Int)
(declare-fun cell_7_3 () Int)
(declare-fun cell_8_3 () Int)
(declare-fun cell_9_3 () Int)
(declare-fun cell_2_4 () Int)
(declare-fun cell_3_4 () Int)
(declare-fun cell_5_4 () Int)
(declare-fun cell_6_4 () Int)
(declare-fun cell_7_4 () Int)
(declare-fun cell_8_4 () Int)
(declare-fun cell_9_4 () Int)
(declare-fun cell_1_5 () Int)
(declare-fun cell_3_5 () Int)
(declare-fun cell_4_5 () Int)
(declare-fun cell_5_5 () Int)
(declare-fun cell_6_5 () Int)
(declare-fun cell_7_5 () Int)
(declare-fun cell_8_5 () Int)
(declare-fun cell_1_6 () Int)
(declare-fun cell_2_6 () Int)
(declare-fun cell_3_6 () Int)
(declare-fun cell_4_6 () Int)
(declare-fun cell_5_6 () Int)
(declare-fun cell_7_6 () Int)
(declare-fun cell_8_6 () Int)
(declare-fun cell_9_6 () Int)
(declare-fun cell_1_7 () Int)
(declare-fun cell_2_7 () Int)
(declare-fun cell_3_7 () Int)
(declare-fun cell_4_7 () Int)
(declare-fun cell_6_7 () Int)
(declare-fun cell_7_7 () Int)
(declare-fun cell_9_7 () Int)
(declare-fun cell_1_8 () Int)
(declare-fun cell_2_8 () Int)
(declare-fun cell_3_8 () Int)
(declare-fun cell_5_8 () Int)
(declare-fun cell_6_8 () Int)
(declare-fun cell_7_8 () Int)
(declare-fun cell_8_8 () Int)
(declare-fun cell_9_8 () Int)
(declare-fun cell_1_9 () Int)
(declare-fun cell_4_9 () Int)
(declare-fun cell_5_9 () Int)
(declare-fun cell_6_9 () Int)
(declare-fun cell_7_9 () Int)
(declare-fun cell_8_9 () Int)
(declare-fun cell_9_9 () Int)
(assert
 (= cell_1_2 2))
(assert
 (= cell_1_4 1))
(assert
 (= cell_2_5 2))
(assert
 (= cell_2_9 1))
(assert
 (= cell_3_1 1))
(assert
 (= cell_3_9 2))
(assert
 (= cell_4_4 2))
(assert
 (= cell_4_8 1))
(assert
 (= cell_5_3 1))
(assert
 (= cell_5_7 2))
(assert
 (= cell_6_3 2))
(assert
 (= cell_6_6 1))
(assert
 (= cell_7_2 1))
(assert
 (= cell_8_7 1))
(assert
 (= cell_9_5 1))
(assert
 (let (($x4644 (= cell_1_1 9)))
 (let (($x5992 (= cell_1_1 8)))
 (let (($x6963 (= cell_1_1 7)))
 (let (($x4872 (= cell_1_1 6)))
 (let (($x620 (= cell_1_1 5)))
 (let (($x3059 (= cell_1_1 4)))
 (let (($x3931 (= cell_1_1 3)))
 (let (($x4054 (= cell_1_1 2)))
 (let (($x51 (= cell_1_1 1)))
 (or $x51 $x4054 $x3931 $x3059 $x620 $x4872 $x6963 $x5992 $x4644)))))))))))
(assert
 (let (($x4179 (= cell_2_1 9)))
 (let (($x5869 (= cell_2_1 8)))
 (let (($x8362 (= cell_2_1 7)))
 (let (($x6462 (= cell_2_1 6)))
 (let (($x7864 (= cell_2_1 5)))
 (let (($x4639 (= cell_2_1 4)))
 (let (($x1374 (= cell_2_1 3)))
 (let (($x9555 (= cell_2_1 2)))
 (let (($x6862 (= cell_2_1 1)))
 (or $x6862 $x9555 $x1374 $x4639 $x7864 $x6462 $x8362 $x5869 $x4179)))))))))))
(assert
 (let (($x4527 (= cell_3_1 1)))
 (or $x4527 (= cell_3_1 2) (= cell_3_1 3) (= cell_3_1 4) (= cell_3_1 5) (= cell_3_1 6) (= cell_3_1 7) (= cell_3_1 8) (= cell_3_1 9))))
(assert
 (let (($x1218 (= cell_4_1 9)))
 (let (($x2235 (= cell_4_1 8)))
 (let (($x9683 (= cell_4_1 7)))
 (let (($x4770 (= cell_4_1 6)))
 (let (($x6466 (= cell_4_1 5)))
 (let (($x395 (= cell_4_1 4)))
 (let (($x823 (= cell_4_1 3)))
 (let (($x7791 (= cell_4_1 2)))
 (let (($x7072 (= cell_4_1 1)))
 (or $x7072 $x7791 $x823 $x395 $x6466 $x4770 $x9683 $x2235 $x1218)))))))))))
(assert
 (let (($x5027 (= cell_5_1 9)))
 (let (($x7465 (= cell_5_1 8)))
 (let (($x186 (= cell_5_1 7)))
 (let (($x7026 (= cell_5_1 6)))
 (let (($x5252 (= cell_5_1 5)))
 (let (($x390 (= cell_5_1 4)))
 (let (($x408 (= cell_5_1 3)))
 (let (($x2963 (= cell_5_1 2)))
 (let (($x1405 (= cell_5_1 1)))
 (or $x1405 $x2963 $x408 $x390 $x5252 $x7026 $x186 $x7465 $x5027)))))))))))
(assert
 (let (($x5114 (= cell_6_1 9)))
 (let (($x7258 (= cell_6_1 8)))
 (let (($x2259 (= cell_6_1 7)))
 (let (($x7878 (= cell_6_1 6)))
 (let (($x2811 (= cell_6_1 5)))
 (let (($x3473 (= cell_6_1 4)))
 (let (($x7594 (= cell_6_1 3)))
 (let (($x6686 (= cell_6_1 2)))
 (let (($x7016 (= cell_6_1 1)))
 (or $x7016 $x6686 $x7594 $x3473 $x2811 $x7878 $x2259 $x7258 $x5114)))))))))))
(assert
 (let (($x8067 (= cell_7_1 9)))
 (let (($x754 (= cell_7_1 8)))
 (let (($x2740 (= cell_7_1 7)))
 (let (($x675 (= cell_7_1 6)))
 (let (($x833 (= cell_7_1 5)))
 (let (($x6330 (= cell_7_1 4)))
 (let (($x8748 (= cell_7_1 3)))
 (let (($x2988 (= cell_7_1 2)))
 (let (($x8338 (= cell_7_1 1)))
 (or $x8338 $x2988 $x8748 $x6330 $x833 $x675 $x2740 $x754 $x8067)))))))))))
(assert
 (let (($x8043 (= cell_8_1 9)))
 (let (($x9441 (= cell_8_1 8)))
 (let (($x7153 (= cell_8_1 7)))
 (let (($x9297 (= cell_8_1 6)))
 (let (($x5506 (= cell_8_1 5)))
 (let (($x7446 (= cell_8_1 4)))
 (let (($x6895 (= cell_8_1 3)))
 (let (($x2787 (= cell_8_1 2)))
 (let (($x2137 (= cell_8_1 1)))
 (or $x2137 $x2787 $x6895 $x7446 $x5506 $x9297 $x7153 $x9441 $x8043)))))))))))
(assert
 (let (($x7626 (= cell_9_1 9)))
 (let (($x6068 (= cell_9_1 8)))
 (let (($x7869 (= cell_9_1 7)))
 (let (($x3503 (= cell_9_1 6)))
 (let (($x4405 (= cell_9_1 5)))
 (let (($x1168 (= cell_9_1 4)))
 (let (($x5813 (= cell_9_1 3)))
 (let (($x5115 (= cell_9_1 2)))
 (let (($x6469 (= cell_9_1 1)))
 (or $x6469 $x5115 $x5813 $x1168 $x4405 $x3503 $x7869 $x6068 $x7626)))))))))))
(assert
 (let (($x5131 (= cell_1_2 2)))
 (or (= cell_1_2 1) $x5131 (= cell_1_2 3) (= cell_1_2 4) (= cell_1_2 5) (= cell_1_2 6) (= cell_1_2 7) (= cell_1_2 8) (= cell_1_2 9))))
(assert
 (let (($x3431 (= cell_2_2 9)))
 (let (($x1403 (= cell_2_2 8)))
 (let (($x188 (= cell_2_2 7)))
 (let (($x9896 (= cell_2_2 6)))
 (let (($x3647 (= cell_2_2 5)))
 (let (($x4895 (= cell_2_2 4)))
 (let (($x5133 (= cell_2_2 3)))
 (let (($x6312 (= cell_2_2 2)))
 (let (($x4853 (= cell_2_2 1)))
 (or $x4853 $x6312 $x5133 $x4895 $x3647 $x9896 $x188 $x1403 $x3431)))))))))))
(assert
 (let (($x8208 (= cell_3_2 9)))
 (let (($x5822 (= cell_3_2 8)))
 (let (($x8629 (= cell_3_2 7)))
 (let (($x6691 (= cell_3_2 6)))
 (let (($x4894 (= cell_3_2 5)))
 (let (($x8228 (= cell_3_2 4)))
 (let (($x3866 (= cell_3_2 3)))
 (let (($x9738 (= cell_3_2 2)))
 (let (($x9850 (= cell_3_2 1)))
 (or $x9850 $x9738 $x3866 $x8228 $x4894 $x6691 $x8629 $x5822 $x8208)))))))))))
(assert
 (let (($x8021 (= cell_4_2 9)))
 (let (($x6126 (= cell_4_2 8)))
 (let (($x1209 (= cell_4_2 7)))
 (let (($x4958 (= cell_4_2 6)))
 (let (($x3836 (= cell_4_2 5)))
 (let (($x445 (= cell_4_2 4)))
 (let (($x9656 (= cell_4_2 3)))
 (let (($x9293 (= cell_4_2 2)))
 (let (($x9284 (= cell_4_2 1)))
 (or $x9284 $x9293 $x9656 $x445 $x3836 $x4958 $x1209 $x6126 $x8021)))))))))))
(assert
 (let (($x4874 (= cell_5_2 9)))
 (let (($x7092 (= cell_5_2 8)))
 (let (($x5203 (= cell_5_2 7)))
 (let (($x2324 (= cell_5_2 6)))
 (let (($x9646 (= cell_5_2 5)))
 (let (($x6101 (= cell_5_2 4)))
 (let (($x3344 (= cell_5_2 3)))
 (let (($x8321 (= cell_5_2 2)))
 (let (($x4877 (= cell_5_2 1)))
 (or $x4877 $x8321 $x3344 $x6101 $x9646 $x2324 $x5203 $x7092 $x4874)))))))))))
(assert
 (let (($x3690 (= cell_6_2 9)))
 (let (($x4824 (= cell_6_2 8)))
 (let (($x8537 (= cell_6_2 7)))
 (let (($x1491 (= cell_6_2 6)))
 (let (($x1547 (= cell_6_2 5)))
 (let (($x5287 (= cell_6_2 4)))
 (let (($x5903 (= cell_6_2 3)))
 (let (($x6546 (= cell_6_2 2)))
 (let (($x3927 (= cell_6_2 1)))
 (or $x3927 $x6546 $x5903 $x5287 $x1547 $x1491 $x8537 $x4824 $x3690)))))))))))
(assert
 (let (($x494 (= cell_7_2 1)))
 (or $x494 (= cell_7_2 2) (= cell_7_2 3) (= cell_7_2 4) (= cell_7_2 5) (= cell_7_2 6) (= cell_7_2 7) (= cell_7_2 8) (= cell_7_2 9))))
(assert
 (let (($x990 (= cell_8_2 9)))
 (let (($x4170 (= cell_8_2 8)))
 (let (($x2851 (= cell_8_2 7)))
 (let (($x7773 (= cell_8_2 6)))
 (let (($x1570 (= cell_8_2 5)))
 (let (($x9813 (= cell_8_2 4)))
 (let (($x6696 (= cell_8_2 3)))
 (let (($x6844 (= cell_8_2 2)))
 (let (($x5698 (= cell_8_2 1)))
 (or $x5698 $x6844 $x6696 $x9813 $x1570 $x7773 $x2851 $x4170 $x990)))))))))))
(assert
 (let (($x2504 (= cell_9_2 9)))
 (let (($x4493 (= cell_9_2 8)))
 (let (($x9339 (= cell_9_2 7)))
 (let (($x7128 (= cell_9_2 6)))
 (let (($x5907 (= cell_9_2 5)))
 (let (($x105 (= cell_9_2 4)))
 (let (($x5043 (= cell_9_2 3)))
 (let (($x5355 (= cell_9_2 2)))
 (let (($x2293 (= cell_9_2 1)))
 (or $x2293 $x5355 $x5043 $x105 $x5907 $x7128 $x9339 $x4493 $x2504)))))))))))
(assert
 (let (($x5390 (= cell_1_3 9)))
 (let (($x1568 (= cell_1_3 8)))
 (let (($x4691 (= cell_1_3 7)))
 (let (($x2757 (= cell_1_3 6)))
 (let (($x79 (= cell_1_3 5)))
 (let (($x9372 (= cell_1_3 4)))
 (let (($x3996 (= cell_1_3 3)))
 (let (($x967 (= cell_1_3 2)))
 (let (($x550 (= cell_1_3 1)))
 (or $x550 $x967 $x3996 $x9372 $x79 $x2757 $x4691 $x1568 $x5390)))))))))))
(assert
 (let (($x4808 (= cell_2_3 9)))
 (let (($x7710 (= cell_2_3 8)))
 (let (($x1954 (= cell_2_3 7)))
 (let (($x9378 (= cell_2_3 6)))
 (let (($x4350 (= cell_2_3 5)))
 (let (($x8310 (= cell_2_3 4)))
 (let (($x121 (= cell_2_3 3)))
 (let (($x2572 (= cell_2_3 2)))
 (let (($x4270 (= cell_2_3 1)))
 (or $x4270 $x2572 $x121 $x8310 $x4350 $x9378 $x1954 $x7710 $x4808)))))))))))
(assert
 (let (($x81 (= cell_3_3 9)))
 (let (($x8246 (= cell_3_3 8)))
 (let (($x770 (= cell_3_3 7)))
 (let (($x3284 (= cell_3_3 6)))
 (let (($x3282 (= cell_3_3 5)))
 (let (($x6070 (= cell_3_3 4)))
 (let (($x942 (= cell_3_3 3)))
 (let (($x6528 (= cell_3_3 2)))
 (let (($x6464 (= cell_3_3 1)))
 (or $x6464 $x6528 $x942 $x6070 $x3282 $x3284 $x770 $x8246 $x81)))))))))))
(assert
 (let (($x1187 (= cell_4_3 9)))
 (let (($x1076 (= cell_4_3 8)))
 (let (($x3788 (= cell_4_3 7)))
 (let (($x8949 (= cell_4_3 6)))
 (let (($x597 (= cell_4_3 5)))
 (let (($x4838 (= cell_4_3 4)))
 (let (($x4306 (= cell_4_3 3)))
 (let (($x5125 (= cell_4_3 2)))
 (let (($x7586 (= cell_4_3 1)))
 (or $x7586 $x5125 $x4306 $x4838 $x597 $x8949 $x3788 $x1076 $x1187)))))))))))
(assert
 (let (($x6184 (= cell_5_3 1)))
 (or $x6184 (= cell_5_3 2) (= cell_5_3 3) (= cell_5_3 4) (= cell_5_3 5) (= cell_5_3 6) (= cell_5_3 7) (= cell_5_3 8) (= cell_5_3 9))))
(assert
 (let (($x6801 (= cell_6_3 2)))
 (or (= cell_6_3 1) $x6801 (= cell_6_3 3) (= cell_6_3 4) (= cell_6_3 5) (= cell_6_3 6) (= cell_6_3 7) (= cell_6_3 8) (= cell_6_3 9))))
(assert
 (let (($x2485 (= cell_7_3 2)))
 (let (($x8231 (= cell_7_3 1)))
 (or $x8231 $x2485 (= cell_7_3 3) (= cell_7_3 4) (= cell_7_3 5) (= cell_7_3 6) (= cell_7_3 7) (= cell_7_3 8) (= cell_7_3 9)))))
(assert
 (let (($x6185 (= cell_8_3 9)))
 (let (($x801 (= cell_8_3 8)))
 (let (($x2862 (= cell_8_3 7)))
 (let (($x4422 (= cell_8_3 6)))
 (let (($x4776 (= cell_8_3 5)))
 (let (($x9141 (= cell_8_3 4)))
 (let (($x7046 (= cell_8_3 3)))
 (let (($x7239 (= cell_8_3 2)))
 (let (($x6416 (= cell_8_3 1)))
 (or $x6416 $x7239 $x7046 $x9141 $x4776 $x4422 $x2862 $x801 $x6185)))))))))))
(assert
 (let (($x4454 (= cell_9_3 9)))
 (let (($x4666 (= cell_9_3 8)))
 (let (($x6627 (= cell_9_3 7)))
 (let (($x9890 (= cell_9_3 6)))
 (let (($x8603 (= cell_9_3 5)))
 (let (($x335 (= cell_9_3 4)))
 (let (($x956 (= cell_9_3 3)))
 (let (($x2918 (= cell_9_3 2)))
 (let (($x4052 (= cell_9_3 1)))
 (or $x4052 $x2918 $x956 $x335 $x8603 $x9890 $x6627 $x4666 $x4454)))))))))))
(assert
 (let (($x2676 (= cell_1_4 1)))
 (or $x2676 (= cell_1_4 2) (= cell_1_4 3) (= cell_1_4 4) (= cell_1_4 5) (= cell_1_4 6) (= cell_1_4 7) (= cell_1_4 8) (= cell_1_4 9))))
(assert
 (let (($x1323 (= cell_2_4 9)))
 (let (($x7716 (= cell_2_4 8)))
 (let (($x7758 (= cell_2_4 7)))
 (let (($x8560 (= cell_2_4 6)))
 (let (($x8736 (= cell_2_4 5)))
 (let (($x291 (= cell_2_4 4)))
 (let (($x304 (= cell_2_4 3)))
 (let (($x756 (= cell_2_4 2)))
 (let (($x10067 (= cell_2_4 1)))
 (or $x10067 $x756 $x304 $x291 $x8736 $x8560 $x7758 $x7716 $x1323)))))))))))
(assert
 (let (($x2768 (= cell_3_4 9)))
 (let (($x8003 (= cell_3_4 8)))
 (let (($x6888 (= cell_3_4 7)))
 (let (($x2254 (= cell_3_4 6)))
 (let (($x9409 (= cell_3_4 5)))
 (let (($x7273 (= cell_3_4 4)))
 (let (($x7358 (= cell_3_4 3)))
 (let (($x1493 (= cell_3_4 2)))
 (let (($x8093 (= cell_3_4 1)))
 (or $x8093 $x1493 $x7358 $x7273 $x9409 $x2254 $x6888 $x8003 $x2768)))))))))))
(assert
 (let (($x3934 (= cell_4_4 2)))
 (or (= cell_4_4 1) $x3934 (= cell_4_4 3) (= cell_4_4 4) (= cell_4_4 5) (= cell_4_4 6) (= cell_4_4 7) (= cell_4_4 8) (= cell_4_4 9))))
(assert
 (let (($x5657 (= cell_5_4 9)))
 (let (($x5253 (= cell_5_4 8)))
 (let (($x8390 (= cell_5_4 7)))
 (let (($x2477 (= cell_5_4 6)))
 (let (($x9266 (= cell_5_4 5)))
 (let (($x9352 (= cell_5_4 4)))
 (let (($x7148 (= cell_5_4 3)))
 (let (($x1522 (= cell_5_4 2)))
 (let (($x8980 (= cell_5_4 1)))
 (or $x8980 $x1522 $x7148 $x9352 $x9266 $x2477 $x8390 $x5253 $x5657)))))))))))
(assert
 (let (($x5476 (= cell_6_4 9)))
 (let (($x2938 (= cell_6_4 8)))
 (let (($x6266 (= cell_6_4 7)))
 (let (($x601 (= cell_6_4 6)))
 (let (($x4477 (= cell_6_4 5)))
 (let (($x7930 (= cell_6_4 4)))
 (let (($x6364 (= cell_6_4 3)))
 (let (($x4353 (= cell_6_4 2)))
 (let (($x4247 (= cell_6_4 1)))
 (or $x4247 $x4353 $x6364 $x7930 $x4477 $x601 $x6266 $x2938 $x5476)))))))))))
(assert
 (let (($x9393 (= cell_7_4 9)))
 (let (($x10227 (= cell_7_4 8)))
 (let (($x2855 (= cell_7_4 7)))
 (let (($x4909 (= cell_7_4 6)))
 (let (($x9775 (= cell_7_4 5)))
 (let (($x2958 (= cell_7_4 4)))
 (let (($x9508 (= cell_7_4 3)))
 (let (($x1010 (= cell_7_4 2)))
 (let (($x4489 (= cell_7_4 1)))
 (or $x4489 $x1010 $x9508 $x2958 $x9775 $x4909 $x2855 $x10227 $x9393)))))))))))
(assert
 (let (($x4355 (= cell_8_4 9)))
 (let (($x2534 (= cell_8_4 8)))
 (let (($x8420 (= cell_8_4 7)))
 (let (($x1527 (= cell_8_4 6)))
 (let (($x7056 (= cell_8_4 5)))
 (let (($x9377 (= cell_8_4 4)))
 (let (($x8716 (= cell_8_4 3)))
 (let (($x3718 (= cell_8_4 2)))
 (let (($x1669 (= cell_8_4 1)))
 (or $x1669 $x3718 $x8716 $x9377 $x7056 $x1527 $x8420 $x2534 $x4355)))))))))))
(assert
 (let (($x540 (= cell_9_4 9)))
 (let (($x1899 (= cell_9_4 8)))
 (let (($x532 (= cell_9_4 7)))
 (let (($x134 (= cell_9_4 6)))
 (let (($x6473 (= cell_9_4 5)))
 (let (($x6729 (= cell_9_4 4)))
 (let (($x455 (= cell_9_4 3)))
 (let (($x4100 (= cell_9_4 2)))
 (let (($x4755 (= cell_9_4 1)))
 (or $x4755 $x4100 $x455 $x6729 $x6473 $x134 $x532 $x1899 $x540)))))))))))
(assert
 (let (($x3280 (= cell_1_5 9)))
 (let (($x9490 (= cell_1_5 8)))
 (let (($x6898 (= cell_1_5 7)))
 (let (($x2155 (= cell_1_5 6)))
 (let (($x316 (= cell_1_5 5)))
 (let (($x65 (= cell_1_5 4)))
 (let (($x108 (= cell_1_5 3)))
 (let (($x6467 (= cell_1_5 2)))
 (let (($x2883 (= cell_1_5 1)))
 (or $x2883 $x6467 $x108 $x65 $x316 $x2155 $x6898 $x9490 $x3280)))))))))))
(assert
 (let (($x2573 (= cell_2_5 2)))
 (or (= cell_2_5 1) $x2573 (= cell_2_5 3) (= cell_2_5 4) (= cell_2_5 5) (= cell_2_5 6) (= cell_2_5 7) (= cell_2_5 8) (= cell_2_5 9))))
(assert
 (let (($x3954 (= cell_3_5 9)))
 (let (($x424 (= cell_3_5 8)))
 (let (($x3961 (= cell_3_5 7)))
 (let (($x2942 (= cell_3_5 6)))
 (let (($x9 (= cell_3_5 5)))
 (let (($x7195 (= cell_3_5 4)))
 (let (($x3356 (= cell_3_5 3)))
 (let (($x7580 (= cell_3_5 2)))
 (let (($x3733 (= cell_3_5 1)))
 (or $x3733 $x7580 $x3356 $x7195 $x9 $x2942 $x3961 $x424 $x3954)))))))))))
(assert
 (let (($x9411 (= cell_4_5 9)))
 (let (($x4043 (= cell_4_5 8)))
 (let (($x394 (= cell_4_5 7)))
 (let (($x10180 (= cell_4_5 6)))
 (let (($x243 (= cell_4_5 5)))
 (let (($x9287 (= cell_4_5 4)))
 (let (($x7130 (= cell_4_5 3)))
 (let (($x1204 (= cell_4_5 2)))
 (let (($x7918 (= cell_4_5 1)))
 (or $x7918 $x1204 $x7130 $x9287 $x243 $x10180 $x394 $x4043 $x9411)))))))))))
(assert
 (let (($x7607 (= cell_5_5 9)))
 (let (($x1451 (= cell_5_5 8)))
 (let (($x7172 (= cell_5_5 7)))
 (let (($x9919 (= cell_5_5 6)))
 (let (($x1492 (= cell_5_5 5)))
 (let (($x352 (= cell_5_5 4)))
 (let (($x5571 (= cell_5_5 3)))
 (let (($x926 (= cell_5_5 2)))
 (let (($x2561 (= cell_5_5 1)))
 (or $x2561 $x926 $x5571 $x352 $x1492 $x9919 $x7172 $x1451 $x7607)))))))))))
(assert
 (let (($x7213 (= cell_6_5 9)))
 (let (($x9769 (= cell_6_5 8)))
 (let (($x4420 (= cell_6_5 7)))
 (let (($x4166 (= cell_6_5 6)))
 (let (($x1478 (= cell_6_5 5)))
 (let (($x4573 (= cell_6_5 4)))
 (let (($x8333 (= cell_6_5 3)))
 (let (($x3072 (= cell_6_5 2)))
 (let (($x5991 (= cell_6_5 1)))
 (or $x5991 $x3072 $x8333 $x4573 $x1478 $x4166 $x4420 $x9769 $x7213)))))))))))
(assert
 (let (($x4216 (= cell_7_5 9)))
 (let (($x2132 (= cell_7_5 8)))
 (let (($x1224 (= cell_7_5 7)))
 (let (($x8857 (= cell_7_5 6)))
 (let (($x6819 (= cell_7_5 5)))
 (let (($x2694 (= cell_7_5 4)))
 (let (($x9493 (= cell_7_5 3)))
 (let (($x2333 (= cell_7_5 2)))
 (let (($x4275 (= cell_7_5 1)))
 (or $x4275 $x2333 $x9493 $x2694 $x6819 $x8857 $x1224 $x2132 $x4216)))))))))))
(assert
 (let (($x3121 (= cell_8_5 9)))
 (let (($x4437 (= cell_8_5 8)))
 (let (($x7230 (= cell_8_5 7)))
 (let (($x4339 (= cell_8_5 6)))
 (let (($x7947 (= cell_8_5 5)))
 (let (($x2594 (= cell_8_5 4)))
 (let (($x3409 (= cell_8_5 3)))
 (let (($x4506 (= cell_8_5 2)))
 (let (($x4915 (= cell_8_5 1)))
 (or $x4915 $x4506 $x3409 $x2594 $x7947 $x4339 $x7230 $x4437 $x3121)))))))))))
(assert
 (let (($x3857 (= cell_9_5 1)))
 (or $x3857 (= cell_9_5 2) (= cell_9_5 3) (= cell_9_5 4) (= cell_9_5 5) (= cell_9_5 6) (= cell_9_5 7) (= cell_9_5 8) (= cell_9_5 9))))
(assert
 (let (($x3854 (= cell_1_6 9)))
 (let (($x6850 (= cell_1_6 8)))
 (let (($x1154 (= cell_1_6 7)))
 (let (($x261 (= cell_1_6 6)))
 (let (($x6249 (= cell_1_6 5)))
 (let (($x3434 (= cell_1_6 4)))
 (let (($x6730 (= cell_1_6 3)))
 (let (($x6668 (= cell_1_6 2)))
 (let (($x7917 (= cell_1_6 1)))
 (or $x7917 $x6668 $x6730 $x3434 $x6249 $x261 $x1154 $x6850 $x3854)))))))))))
(assert
 (let (($x6824 (= cell_2_6 9)))
 (let (($x8042 (= cell_2_6 8)))
 (let (($x8505 (= cell_2_6 7)))
 (let (($x5653 (= cell_2_6 6)))
 (let (($x5480 (= cell_2_6 5)))
 (let (($x7636 (= cell_2_6 4)))
 (let (($x4989 (= cell_2_6 3)))
 (let (($x7656 (= cell_2_6 2)))
 (let (($x4391 (= cell_2_6 1)))
 (or $x4391 $x7656 $x4989 $x7636 $x5480 $x5653 $x8505 $x8042 $x6824)))))))))))
(assert
 (let (($x7581 (= cell_3_6 9)))
 (let (($x3478 (= cell_3_6 8)))
 (let (($x5663 (= cell_3_6 7)))
 (let (($x6589 (= cell_3_6 6)))
 (let (($x4513 (= cell_3_6 5)))
 (let (($x2058 (= cell_3_6 4)))
 (let (($x559 (= cell_3_6 3)))
 (let (($x9096 (= cell_3_6 2)))
 (let (($x3952 (= cell_3_6 1)))
 (or $x3952 $x9096 $x559 $x2058 $x4513 $x6589 $x5663 $x3478 $x7581)))))))))))
(assert
 (let (($x4414 (= cell_4_6 9)))
 (let (($x4584 (= cell_4_6 8)))
 (let (($x2536 (= cell_4_6 7)))
 (let (($x7420 (= cell_4_6 6)))
 (let (($x3396 (= cell_4_6 5)))
 (let (($x2318 (= cell_4_6 4)))
 (let (($x7913 (= cell_4_6 3)))
 (let (($x8063 (= cell_4_6 2)))
 (let (($x9712 (= cell_4_6 1)))
 (or $x9712 $x8063 $x7913 $x2318 $x3396 $x7420 $x2536 $x4584 $x4414)))))))))))
(assert
 (let (($x9063 (= cell_5_6 9)))
 (let (($x7044 (= cell_5_6 8)))
 (let (($x2288 (= cell_5_6 7)))
 (let (($x7641 (= cell_5_6 6)))
 (let (($x8142 (= cell_5_6 5)))
 (let (($x4705 (= cell_5_6 4)))
 (let (($x5347 (= cell_5_6 3)))
 (let (($x6783 (= cell_5_6 2)))
 (let (($x3597 (= cell_5_6 1)))
 (or $x3597 $x6783 $x5347 $x4705 $x8142 $x7641 $x2288 $x7044 $x9063)))))))))))
(assert
 (let (($x9804 (= cell_6_6 1)))
 (or $x9804 (= cell_6_6 2) (= cell_6_6 3) (= cell_6_6 4) (= cell_6_6 5) (= cell_6_6 6) (= cell_6_6 7) (= cell_6_6 8) (= cell_6_6 9))))
(assert
 (let (($x9969 (= cell_7_6 9)))
 (let (($x4332 (= cell_7_6 8)))
 (let (($x9621 (= cell_7_6 7)))
 (let (($x393 (= cell_7_6 6)))
 (let (($x5023 (= cell_7_6 5)))
 (let (($x7863 (= cell_7_6 4)))
 (let (($x1843 (= cell_7_6 3)))
 (let (($x6129 (= cell_7_6 2)))
 (let (($x931 (= cell_7_6 1)))
 (or $x931 $x6129 $x1843 $x7863 $x5023 $x393 $x9621 $x4332 $x9969)))))))))))
(assert
 (let (($x1876 (= cell_8_6 9)))
 (let (($x683 (= cell_8_6 8)))
 (let (($x7818 (= cell_8_6 7)))
 (let (($x7610 (= cell_8_6 6)))
 (let (($x3899 (= cell_8_6 5)))
 (let (($x443 (= cell_8_6 4)))
 (let (($x7683 (= cell_8_6 3)))
 (let (($x6540 (= cell_8_6 2)))
 (let (($x6221 (= cell_8_6 1)))
 (or $x6221 $x6540 $x7683 $x443 $x3899 $x7610 $x7818 $x683 $x1876)))))))))))
(assert
 (let (($x2821 (= cell_9_6 1)))
 (or $x2821 (= cell_9_6 2) (= cell_9_6 3) (= cell_9_6 4) (= cell_9_6 5) (= cell_9_6 6) (= cell_9_6 7) (= cell_9_6 8) (= cell_9_6 9))))
(assert
 (let (($x2383 (= cell_1_7 9)))
 (let (($x8460 (= cell_1_7 8)))
 (let (($x2696 (= cell_1_7 7)))
 (let (($x9434 (= cell_1_7 6)))
 (let (($x1768 (= cell_1_7 5)))
 (let (($x4410 (= cell_1_7 4)))
 (let (($x1759 (= cell_1_7 3)))
 (let (($x5660 (= cell_1_7 2)))
 (let (($x512 (= cell_1_7 1)))
 (or $x512 $x5660 $x1759 $x4410 $x1768 $x9434 $x2696 $x8460 $x2383)))))))))))
(assert
 (let (($x5229 (= cell_2_7 9)))
 (let (($x2362 (= cell_2_7 8)))
 (let (($x9709 (= cell_2_7 7)))
 (let (($x5540 (= cell_2_7 6)))
 (let (($x606 (= cell_2_7 5)))
 (let (($x6886 (= cell_2_7 4)))
 (let (($x6831 (= cell_2_7 3)))
 (let (($x10150 (= cell_2_7 2)))
 (let (($x5350 (= cell_2_7 1)))
 (or $x5350 $x10150 $x6831 $x6886 $x606 $x5540 $x9709 $x2362 $x5229)))))))))))
(assert
 (let (($x5640 (= cell_3_7 9)))
 (let (($x9142 (= cell_3_7 8)))
 (let (($x9946 (= cell_3_7 7)))
 (let (($x3051 (= cell_3_7 6)))
 (let (($x1815 (= cell_3_7 5)))
 (let (($x7304 (= cell_3_7 4)))
 (let (($x6291 (= cell_3_7 3)))
 (let (($x9618 (= cell_3_7 2)))
 (let (($x1029 (= cell_3_7 1)))
 (or $x1029 $x9618 $x6291 $x7304 $x1815 $x3051 $x9946 $x9142 $x5640)))))))))))
(assert
 (let (($x9445 (= cell_4_7 9)))
 (let (($x3523 (= cell_4_7 8)))
 (let (($x2000 (= cell_4_7 7)))
 (let (($x3501 (= cell_4_7 6)))
 (let (($x7630 (= cell_4_7 5)))
 (let (($x7388 (= cell_4_7 4)))
 (let (($x3720 (= cell_4_7 3)))
 (let (($x4844 (= cell_4_7 2)))
 (let (($x3220 (= cell_4_7 1)))
 (or $x3220 $x4844 $x3720 $x7388 $x7630 $x3501 $x2000 $x3523 $x9445)))))))))))
(assert
 (let (($x3169 (= cell_5_7 2)))
 (or (= cell_5_7 1) $x3169 (= cell_5_7 3) (= cell_5_7 4) (= cell_5_7 5) (= cell_5_7 6) (= cell_5_7 7) (= cell_5_7 8) (= cell_5_7 9))))
(assert
 (let (($x6306 (= cell_6_7 9)))
 (let (($x8540 (= cell_6_7 8)))
 (let (($x1598 (= cell_6_7 7)))
 (let (($x674 (= cell_6_7 6)))
 (let (($x8879 (= cell_6_7 5)))
 (let (($x8785 (= cell_6_7 4)))
 (let (($x1134 (= cell_6_7 3)))
 (let (($x9190 (= cell_6_7 2)))
 (let (($x4569 (= cell_6_7 1)))
 (or $x4569 $x9190 $x1134 $x8785 $x8879 $x674 $x1598 $x8540 $x6306)))))))))))
(assert
 (let (($x9580 (= cell_7_7 9)))
 (let (($x333 (= cell_7_7 8)))
 (let (($x9068 (= cell_7_7 7)))
 (let (($x7760 (= cell_7_7 6)))
 (let (($x3263 (= cell_7_7 5)))
 (let (($x8450 (= cell_7_7 4)))
 (let (($x1356 (= cell_7_7 3)))
 (let (($x8755 (= cell_7_7 2)))
 (let (($x4421 (= cell_7_7 1)))
 (or $x4421 $x8755 $x1356 $x8450 $x3263 $x7760 $x9068 $x333 $x9580)))))))))))
(assert
 (let (($x2168 (= cell_8_7 1)))
 (or $x2168 (= cell_8_7 2) (= cell_8_7 3) (= cell_8_7 4) (= cell_8_7 5) (= cell_8_7 6) (= cell_8_7 7) (= cell_8_7 8) (= cell_8_7 9))))
(assert
 (let (($x10147 (= cell_9_7 2)))
 (let (($x4385 (= cell_9_7 1)))
 (or $x4385 $x10147 (= cell_9_7 3) (= cell_9_7 4) (= cell_9_7 5) (= cell_9_7 6) (= cell_9_7 7) (= cell_9_7 8) (= cell_9_7 9)))))
(assert
 (let (($x5989 (= cell_1_8 9)))
 (let (($x7663 (= cell_1_8 8)))
 (let (($x9885 (= cell_1_8 7)))
 (let (($x3020 (= cell_1_8 6)))
 (let (($x1255 (= cell_1_8 5)))
 (let (($x5955 (= cell_1_8 4)))
 (let (($x9529 (= cell_1_8 3)))
 (let (($x1689 (= cell_1_8 2)))
 (let (($x8998 (= cell_1_8 1)))
 (or $x8998 $x1689 $x9529 $x5955 $x1255 $x3020 $x9885 $x7663 $x5989)))))))))))
(assert
 (let (($x358 (= cell_2_8 9)))
 (let (($x3014 (= cell_2_8 8)))
 (let (($x167 (= cell_2_8 7)))
 (let (($x8649 (= cell_2_8 6)))
 (let (($x3163 (= cell_2_8 5)))
 (let (($x1924 (= cell_2_8 4)))
 (let (($x8015 (= cell_2_8 3)))
 (let (($x8774 (= cell_2_8 2)))
 (let (($x1789 (= cell_2_8 1)))
 (or $x1789 $x8774 $x8015 $x1924 $x3163 $x8649 $x167 $x3014 $x358)))))))))))
(assert
 (let (($x8466 (= cell_3_8 9)))
 (let (($x6529 (= cell_3_8 8)))
 (let (($x9362 (= cell_3_8 7)))
 (let (($x686 (= cell_3_8 6)))
 (let (($x8536 (= cell_3_8 5)))
 (let (($x733 (= cell_3_8 4)))
 (let (($x2471 (= cell_3_8 3)))
 (let (($x5474 (= cell_3_8 2)))
 (let (($x1448 (= cell_3_8 1)))
 (or $x1448 $x5474 $x2471 $x733 $x8536 $x686 $x9362 $x6529 $x8466)))))))))))
(assert
 (let (($x6142 (= cell_4_8 1)))
 (or $x6142 (= cell_4_8 2) (= cell_4_8 3) (= cell_4_8 4) (= cell_4_8 5) (= cell_4_8 6) (= cell_4_8 7) (= cell_4_8 8) (= cell_4_8 9))))
(assert
 (let (($x7933 (= cell_5_8 2)))
 (let (($x2447 (= cell_5_8 1)))
 (or $x2447 $x7933 (= cell_5_8 3) (= cell_5_8 4) (= cell_5_8 5) (= cell_5_8 6) (= cell_5_8 7) (= cell_5_8 8) (= cell_5_8 9)))))
(assert
 (let (($x2990 (= cell_6_8 2)))
 (let (($x3393 (= cell_6_8 1)))
 (or $x3393 $x2990 (= cell_6_8 3) (= cell_6_8 4) (= cell_6_8 5) (= cell_6_8 6) (= cell_6_8 7) (= cell_6_8 8) (= cell_6_8 9)))))
(assert
 (let (($x9052 (= cell_7_8 9)))
 (let (($x5056 (= cell_7_8 8)))
 (let (($x3469 (= cell_7_8 7)))
 (let (($x6119 (= cell_7_8 6)))
 (let (($x4707 (= cell_7_8 5)))
 (let (($x7182 (= cell_7_8 4)))
 (let (($x5011 (= cell_7_8 3)))
 (let (($x5119 (= cell_7_8 2)))
 (let (($x2146 (= cell_7_8 1)))
 (or $x2146 $x5119 $x5011 $x7182 $x4707 $x6119 $x3469 $x5056 $x9052)))))))))))
(assert
 (let (($x7498 (= cell_8_8 1)))
 (or $x7498 (= cell_8_8 2) (= cell_8_8 3) (= cell_8_8 4) (= cell_8_8 5) (= cell_8_8 6) (= cell_8_8 7) (= cell_8_8 8) (= cell_8_8 9))))
(assert
 (let (($x3999 (= cell_9_8 1)))
 (or $x3999 (= cell_9_8 2) (= cell_9_8 3) (= cell_9_8 4) (= cell_9_8 5) (= cell_9_8 6) (= cell_9_8 7) (= cell_9_8 8) (= cell_9_8 9))))
(assert
 (let (($x7901 (= cell_1_9 9)))
 (let (($x5932 (= cell_1_9 8)))
 (let (($x318 (= cell_1_9 7)))
 (let (($x6227 (= cell_1_9 6)))
 (let (($x8025 (= cell_1_9 5)))
 (let (($x6917 (= cell_1_9 4)))
 (let (($x4372 (= cell_1_9 3)))
 (let (($x2095 (= cell_1_9 2)))
 (let (($x8584 (= cell_1_9 1)))
 (or $x8584 $x2095 $x4372 $x6917 $x8025 $x6227 $x318 $x5932 $x7901)))))))))))
(assert
 (let (($x3383 (= cell_2_9 1)))
 (or $x3383 (= cell_2_9 2) (= cell_2_9 3) (= cell_2_9 4) (= cell_2_9 5) (= cell_2_9 6) (= cell_2_9 7) (= cell_2_9 8) (= cell_2_9 9))))
(assert
 (let (($x7510 (= cell_3_9 2)))
 (or (= cell_3_9 1) $x7510 (= cell_3_9 3) (= cell_3_9 4) (= cell_3_9 5) (= cell_3_9 6) (= cell_3_9 7) (= cell_3_9 8) (= cell_3_9 9))))
(assert
 (let (($x7486 (= cell_4_9 9)))
 (let (($x6990 (= cell_4_9 8)))
 (let (($x5441 (= cell_4_9 7)))
 (let (($x9213 (= cell_4_9 6)))
 (let (($x23 (= cell_4_9 5)))
 (let (($x8119 (= cell_4_9 4)))
 (let (($x2144 (= cell_4_9 3)))
 (let (($x5832 (= cell_4_9 2)))
 (let (($x3379 (= cell_4_9 1)))
 (or $x3379 $x5832 $x2144 $x8119 $x23 $x9213 $x5441 $x6990 $x7486)))))))))))
(assert
 (let (($x4343 (= cell_5_9 2)))
 (let (($x7981 (= cell_5_9 1)))
 (or $x7981 $x4343 (= cell_5_9 3) (= cell_5_9 4) (= cell_5_9 5) (= cell_5_9 6) (= cell_5_9 7) (= cell_5_9 8) (= cell_5_9 9)))))
(assert
 (let (($x8027 (= cell_6_9 2)))
 (let (($x850 (= cell_6_9 1)))
 (or $x850 $x8027 (= cell_6_9 3) (= cell_6_9 4) (= cell_6_9 5) (= cell_6_9 6) (= cell_6_9 7) (= cell_6_9 8) (= cell_6_9 9)))))
(assert
 (let (($x9032 (= cell_7_9 9)))
 (let (($x8833 (= cell_7_9 8)))
 (let (($x9695 (= cell_7_9 7)))
 (let (($x3922 (= cell_7_9 6)))
 (let (($x8709 (= cell_7_9 5)))
 (let (($x5235 (= cell_7_9 4)))
 (let (($x1744 (= cell_7_9 3)))
 (let (($x3990 (= cell_7_9 2)))
 (let (($x8545 (= cell_7_9 1)))
 (or $x8545 $x3990 $x1744 $x5235 $x8709 $x3922 $x9695 $x8833 $x9032)))))))))))
(assert
 (let (($x4744 (= cell_8_9 2)))
 (let (($x7837 (= cell_8_9 1)))
 (or $x7837 $x4744 (= cell_8_9 3) (= cell_8_9 4) (= cell_8_9 5) (= cell_8_9 6) (= cell_8_9 7) (= cell_8_9 8) (= cell_8_9 9)))))
(assert
 (let (($x1964 (= cell_9_9 2)))
 (let (($x9544 (= cell_9_9 1)))
 (or $x9544 $x1964 (= cell_9_9 3) (= cell_9_9 4) (= cell_9_9 5) (= cell_9_9 6) (= cell_9_9 7) (= cell_9_9 8) (= cell_9_9 9)))))
(assert
 (and (distinct cell_1_1 cell_1_2 cell_1_3 cell_1_4 cell_1_5 cell_1_6 cell_1_7 cell_1_8 cell_1_9) true))
(assert
 (and (distinct cell_2_1 cell_2_2 cell_2_3 cell_2_4 cell_2_5 cell_2_6 cell_2_7 cell_2_8 cell_2_9) true))
(assert
 (and (distinct cell_3_1 cell_3_2 cell_3_3 cell_3_4 cell_3_5 cell_3_6 cell_3_7 cell_3_8 cell_3_9) true))
(assert
 (and (distinct cell_4_1 cell_4_2 cell_4_3 cell_4_4 cell_4_5 cell_4_6 cell_4_7 cell_4_8 cell_4_9) true))
(assert
 (and (distinct cell_5_1 cell_5_2 cell_5_3 cell_5_4 cell_5_5 cell_5_6 cell_5_7 cell_5_8 cell_5_9) true))
(assert
 (and (distinct cell_6_1 cell_6_2 cell_6_3 cell_6_4 cell_6_5 cell_6_6 cell_6_7 cell_6_8 cell_6_9) true))
(assert
 (and (distinct cell_7_1 cell_7_2 cell_7_3 cell_7_4 cell_7_5 cell_7_6 cell_7_7 cell_7_8 cell_7_9) true))
(assert
 (and (distinct cell_8_1 cell_8_2 cell_8_3 cell_8_4 cell_8_5 cell_8_6 cell_8_7 cell_8_8 cell_8_9) true))
(assert
 (and (distinct cell_9_1 cell_9_2 cell_9_3 cell_9_4 cell_9_5 cell_9_6 cell_9_7 cell_9_8 cell_9_9) true))
(assert
 (and (distinct cell_1_1 cell_2_1 cell_3_1 cell_4_1 cell_5_1 cell_6_1 cell_7_1 cell_8_1 cell_9_1) true))
(assert
 (and (distinct cell_1_2 cell_2_2 cell_3_2 cell_4_2 cell_5_2 cell_6_2 cell_7_2 cell_8_2 cell_9_2) true))
(assert
 (and (distinct cell_1_3 cell_2_3 cell_3_3 cell_4_3 cell_5_3 cell_6_3 cell_7_3 cell_8_3 cell_9_3) true))
(assert
 (and (distinct cell_1_4 cell_2_4 cell_3_4 cell_4_4 cell_5_4 cell_6_4 cell_7_4 cell_8_4 cell_9_4) true))
(assert
 (and (distinct cell_1_5 cell_2_5 cell_3_5 cell_4_5 cell_5_5 cell_6_5 cell_7_5 cell_8_5 cell_9_5) true))
(assert
 (and (distinct cell_1_6 cell_2_6 cell_3_6 cell_4_6 cell_5_6 cell_6_6 cell_7_6 cell_8_6 cell_9_6) true))
(assert
 (and (distinct cell_1_7 cell_2_7 cell_3_7 cell_4_7 cell_5_7 cell_6_7 cell_7_7 cell_8_7 cell_9_7) true))
(assert
 (and (distinct cell_1_8 cell_2_8 cell_3_8 cell_4_8 cell_5_8 cell_6_8 cell_7_8 cell_8_8 cell_9_8) true))
(assert
 (and (distinct cell_1_9 cell_2_9 cell_3_9 cell_4_9 cell_5_9 cell_6_9 cell_7_9 cell_8_9 cell_9_9) true))
(assert
 (and (distinct cell_1_1 cell_1_2 cell_1_3 cell_2_1 cell_2_2 cell_2_3 cell_3_1 cell_3_2 cell_3_3) true))
(assert
 (and (distinct cell_1_4 cell_1_5 cell_1_6 cell_2_4 cell_2_5 cell_2_6 cell_3_4 cell_3_5 cell_3_6) true))
(assert
 (and (distinct cell_1_7 cell_1_8 cell_1_9 cell_2_7 cell_2_8 cell_2_9 cell_3_7 cell_3_8 cell_3_9) true))
(assert
 (and (distinct cell_4_1 cell_4_2 cell_4_3 cell_5_1 cell_5_2 cell_5_3 cell_6_1 cell_6_2 cell_6_3) true))
(assert
 (and (distinct cell_4_4 cell_4_5 cell_4_6 cell_5_4 cell_5_5 cell_5_6 cell_6_4 cell_6_5 cell_6_6) true))
(assert
 (and (distinct cell_4_7 cell_4_8 cell_4_9 cell_5_7 cell_5_8 cell_5_9 cell_6_7 cell_6_8 cell_6_9) true))
(assert
 (and (distinct cell_7_1 cell_7_2 cell_7_3 cell_8_1 cell_8_2 cell_8_3 cell_9_1 cell_9_2 cell_9_3) true))
(assert
 (and (distinct cell_7_4 cell_7_5 cell_7_6 cell_8_4 cell_8_5 cell_8_6 cell_9_4 cell_9_5 cell_9_6) true))
(assert
 (and (distinct cell_7_7 cell_7_8 cell_7_9 cell_8_7 cell_8_8 cell_8_9 cell_9_7 cell_9_8 cell_9_9) true))
(assert
 (let (($x4023 (and (distinct cell_5_9 cell_6_8 cell_7_7 cell_8_6) true)))
 (let (($x585 (and (distinct cell_2_9 cell_3_8 cell_4_7 cell_5_6 cell_6_5 cell_7_4 cell_8_3 cell_9_2) true)))
 (let (($x3777 (and (distinct cell_1_8 cell_2_7 cell_3_6 cell_4_5 cell_5_4 cell_6_3 cell_7_2 cell_8_1) true)))
 (let (($x8383 (and (distinct cell_1_5 cell_2_4 cell_3_3 cell_4_2) true)))
 (let (($x8822 (and (distinct cell_5_1 cell_6_2 cell_7_3 cell_8_4) true)))
 (let (($x1503 (and (distinct cell_2_1 cell_3_2 cell_4_3 cell_5_4 cell_6_5 cell_7_6 cell_8_7 cell_9_8) true)))
 (let (($x199 (and (distinct cell_1_2 cell_2_3 cell_3_4 cell_4_5 cell_5_6 cell_6_7 cell_7_8 cell_8_9) true)))
 (let (($x13 (and (distinct cell_1_5 cell_2_6 cell_3_7 cell_4_8) true)))
 (and $x13 $x199 $x1503 $x8822 $x8383 $x3777 $x585 $x4023))))))))))
(assert
 (= cell_7_1 2))
(check-sat)
